 &control
    prefix='yyyy'
    calculation = 'scf'
    restart_mode = 'from_scratch'
    tprnfor = .true.
    outdir = './'
    pseudo_dir = './'
    etot_conv_thr = 1.0D-4
    forc_conv_thr = 1.0D-3
    nstep = 200
 /
 &system
    ibrav           = 0,
    nat             = 56,
    ntyp            = 2,
    ecutwfc         = xxxx,
    nbnd            = 240,
    occupations     = 'smearing',
    smearing        = 'mp',
    degauss         = 0.05,
 /
 &electrons
   diagonalization='cg'
   mixing_mode='local-TF'
   mixing_beta=0.3
   mixing_ndim=10
   conv_thr=1.0d-6
   electron_maxstep = 500
 /
 &ions
   ion_dynamics='bfgs'
 /

ATOMIC_SPECIES
    C 12.01 'C'
    Pt 195.1 'Pt'

ATOMIC_POSITIONS angstrom
Pt       3.64114413       0.68661971       7.36652200
Pt       3.64114413       3.45847829       7.36652200
Pt      11.95671987       0.68661971       7.36652200
Pt      11.95671987       3.45847829       7.36652200
Pt       2.22317213       5.00233687       9.32652300
Pt       2.22317213       2.23047829       9.32652300
Pt      10.53874787       5.00233687       9.32652300
Pt      10.53874787       2.23047829       9.32652300
Pt      14.60040662       0.68661971       7.36652200
Pt      14.60040662       3.45847829       7.36652200
Pt       6.28483087       0.68661971       7.36652200
Pt       6.28483087       3.45847829       7.36652200
Pt      13.18243462       5.00233687       9.32652300
Pt      13.18243462       2.23047829       9.32652300
Pt       4.86685887       5.00233687       9.32652300
Pt       4.86685887       2.23047829       9.32652300
Pt       0.80520013       0.68661971       7.36652200
Pt       0.80520013       3.45847829       7.36652200
Pt       9.12077587       0.68661971       7.36652200
Pt       9.12077587       3.45847829       7.36652200
Pt      16.01837962       5.00233687       9.32652300
Pt      16.01837962       2.23047829       9.32652300
Pt       7.70280387       5.00233687       9.32652300
Pt       7.70280387       2.23047829       9.32652300
C      12.47336362       1.07007071       4.99999900
C      12.47336362       3.84192929       4.99999900
C       4.15778787       1.07007071       4.99999900
C       4.15778787       3.84192929       4.99999900
C       2.93207313       1.07007071       4.99999900
C       2.93207313       3.84192929       4.99999900
C      11.24764887       1.07007071       4.99999900
C      11.24764887       3.84192929       4.99999900
C      14.60032162       5.38578787       4.99999900
C      14.60032162       2.61392929       4.99999900
C       6.28474587       5.38578787       4.99999900
C       6.28474587       2.61392929       4.99999900
C      13.18234962       5.38578787       4.99999900
C      13.18234962       2.61392929       4.99999900
C       4.86677387       5.38578787       4.99999900
C       4.86677387       2.61392929       4.99999900
C       0.09612913       1.07007071       4.99999900
C       0.09612913       3.84192929       4.99999900
C       8.41170487       1.07007071       4.99999900
C       8.41170487       3.84192929       4.99999900
C      15.30930862       1.07007071       4.99999900
C      15.30930862       3.84192929       4.99999900
C       6.99373287       1.07007071       4.99999900
C       6.99373287       3.84192929       4.99999900
C       2.22308713       5.38578787       4.99999900
C       2.22308713       2.61392929       4.99999900
C      10.53866287       5.38578787       4.99999900
C      10.53866287       2.61392929       4.99999900
C       0.80511513       5.38578787       4.99999900
C       0.80511513       2.61392929       4.99999900
C       9.12069087       5.38578787       4.99999900
C       9.12069087       2.61392929       4.99999900

CELL_PARAMETERS angstrom
  16.63115149       0.00000000      -0.00000000  
   0.00000000       5.54371716      -0.00000000 
   0.00000000       0.00000000      23.00000000 

K_POINTS automatic
  2 2 1 0 0 0

